f:587033
solution:
178 130 58 59 199 109 108 94 168 128 153 73 124 65 118 6 98 121 0 32 31 155 122 184 171 190 167 50 4 127 13 157 43 8 151 26 197 141 72 60 191 138 36 55 181 189 45 115 97 89 106 116 173 119 34 21 24 54 192 38 66 40 125 104 123 46 9 139 144 61 44 185 163 182 172 70 137 23 42 165 196 39 84 194 48 29 1 180 160 195 135 12 20 100 16 27 62 111 85 158 154 30 18 82 49 86 159 117 183 79 35 25 99 77 37 187 146 83 174 164 179 188 107 133 152 75 156 52 147 148 3 143 169 17 22 149 69 110 129 120 56 14 198 51 126 87 102 80 15 71 76 68 7 10 96 53 186 93 177 63 33 57 193 64 170 28 101 5 95 74 114 150 81 113 103 166 132 161 88 2 176 91 140 131 90 145 112 19 136 142 67 105 175 134 11 78 92 41 47 162 
